196	32	4	66	
8	11	11	9

0	0	0	0	0	0	3	1	2	3
1	0	7	0	0	9	3	5	7	13
2	0	0	0	5	10	3	4	15	16
3	0	0	5	0	5	3	11	15	16
4	0	2	0	0	1	3	6	9	12
5	0	0	5	0	3	3	6	23	27
6	0	0	0	4	5	2	8	10
7	0	0	9	0	9	3	14	17	22
8	0	3	0	0	5	1	30
9	0	9	0	0	10	3	22	24	30
10	0	0	0	5	8	2	17	29
11	0	0	4	0	7	1	19
12	0	9	0	0	2	2	20	23
13	4	0	0	0	8	1	17
14	0	0	8	0	3	1	20
15	0	0	0	6	6	2	18	19
16	0	5	0	0	1	3	25	27	29
17	0	0	0	9	10	2	28	30
18	2	0	0	0	10	2	23	26
19	0	2	0	0	8	2	20	22
20	0	0	8	0	9	3	21	25	29
21	0	0	9	0	1	1	24
22	0	0	3	0	3	1	26
23	0	0	8	0	8	1	25
24	4	0	0	0	6	1	26
25	0	0	1	0	3	1	28
26	7	0	0	0	9	1	27
27	6	0	0	0	7	1	28
28	0	0	0	5	10	1	31
29	6	0	0	0	10	1	31
30	0	2	0	0	10	1	31
31	0	0	0	0	0	0
